20
70.0
0 1 39 1
0 2 39 1
0 3 39 1
0 4 39 1
0 5 39 1
0 6 39 1
0 7 39 1
0 8 39 1
0 9 39 1
0 10 39 1
0 11 39 1
0 12 39 1
0 13 39 1
0 14 39 1
0 15 39 1
0 16 39 1
0 17 39 1
0 18 39 1
0 19 39 1
1 2 2 38
1 3 2 38
1 4 2 38
1 5 2 38
1 6 2 38
1 7 2 38
1 8 2 38
1 9 2 38
1 10 2 38
1 11 2 38
1 12 2 38
1 13 2 38
1 14 2 38
1 15 2 38
1 16 2 38
1 17 2 38
1 18 2 38
1 19 2 38
2 3 37 3
2 4 37 3
2 5 37 3
2 6 37 3
2 7 37 3
2 8 37 3
2 9 37 3
2 10 37 3
2 11 37 3
2 12 37 3
2 13 37 3
2 14 37 3
2 15 37 3
2 16 37 3
2 17 37 3
2 18 37 3
2 19 37 3
3 4 4 36
3 5 4 36
3 6 4 36
3 7 4 36
3 8 4 36
3 9 4 36
3 10 4 36
3 11 4 36
3 12 4 36
3 13 4 36
3 14 4 36
3 15 4 36
3 16 4 36
3 17 4 36
3 18 4 36
3 19 4 36
4 5 35 5
4 6 35 5
4 7 35 5
4 8 35 5
4 9 35 5
4 10 35 5
4 11 35 5
4 12 35 5
4 13 35 5
4 14 35 5
4 15 35 5
4 16 35 5
4 17 35 5
4 18 35 5
4 19 35 5
5 6 6 34
5 7 6 34
5 8 6 34
5 9 6 34
5 10 6 34
5 11 6 34
5 12 6 34
5 13 6 34
5 14 6 34
5 15 6 34
5 16 6 34
5 17 6 34
5 18 6 34
5 19 6 34
6 7 33 7
6 8 33 7
6 9 33 7
6 10 33 7
6 11 33 7
6 12 33 7
6 13 33 7
6 14 33 7
6 15 33 7
6 16 33 7
6 17 33 7
6 18 33 7
6 19 33 7
7 8 8 32
7 9 8 32
7 10 8 32
7 11 8 32
7 12 8 32
7 13 8 32
7 14 8 32
7 15 8 32
7 16 8 32
7 17 8 32
7 18 8 32
7 19 8 32
8 9 31 9
8 10 31 9
8 11 31 9
8 12 31 9
8 13 31 9
8 14 31 9
8 15 31 9
8 16 31 9
8 17 31 9
8 18 31 9
8 19 31 9
9 10 10 30
9 11 10 30
9 12 10 30
9 13 10 30
9 14 10 30
9 15 10 30
9 16 10 30
9 17 10 30
9 18 10 30
9 19 10 30
10 11 29 11
10 12 29 11
10 13 29 11
10 14 29 11
10 15 29 11
10 16 29 11
10 17 29 11
10 18 29 11
10 19 29 11
11 12 12 28
11 13 12 28
11 14 12 28
11 15 12 28
11 16 12 28
11 17 12 28
11 18 12 28
11 19 12 28
12 13 27 13
12 14 27 13
12 15 27 13
12 16 27 13
12 17 27 13
12 18 27 13
12 19 27 13
13 14 14 26
13 15 14 26
13 16 14 26
13 17 14 26
13 18 14 26
13 19 14 26
14 15 25 15
14 16 25 15
14 17 25 15
14 18 25 15
14 19 25 15
15 16 16 24
15 17 16 24
15 18 16 24
15 19 16 24
16 17 23 17
16 18 23 17
16 19 23 17
17 18 18 22
17 19 18 22
18 19 21 19
